c Grid graph 3x6
p edge 18 27
e 1 2
e 1 7
e 2 3
e 2 8
e 3 4
e 3 9
e 4 5
e 4 10
e 5 6
e 5 11
e 6 12
e 7 8
e 7 13
e 8 9
e 8 14
e 9 10
e 9 15
e 10 11
e 10 16
e 11 12
e 11 17
e 12 18
e 13 14
e 14 15
e 15 16
e 16 17
e 17 18
